# ORCA job from PDB
! B3LYP D3BJ def2-SVP Opt TightSCF CPCM(water)

* xyz +1 1
C          0.67911       -1.79660       -0.27430
C         -0.47577       -2.57301       -0.29406
O         -0.26363       -3.92583       -0.33630
C         -1.02786       -4.59440       -1.34099
C         -1.73423       -1.96094       -0.19055
O         -2.85178       -2.75284       -0.08508
H          2.57271        2.43334       -0.20979
H          1.43900        2.02179       -1.52861
H          2.61844       -0.02537       -0.82734
H          1.64536       -2.29879       -0.30723
H         -0.22963        4.29476        0.98824
H          1.47639        4.29942        0.49593
H          0.19480        4.20168       -0.76418
H         -6.48155       -0.08757       -0.95654
C         -3.21441        1.47328        0.41222
C         -4.42880        2.16790        0.52665
C         -5.60361        1.60253        0.04327
C         -5.56836        0.35102       -0.55948
C         -3.04769       -3.16000        1.27251
C         -1.86230       -0.55178       -0.18222
C         -0.66424        0.21920       -0.15408
C         -0.78663        1.73680       -0.08562
H         -4.47080        3.15570        0.98054
C         -1.93120        2.11680        0.87730
H         -2.24970       -3.83193        1.60487
H         -0.99844        2.10371       -1.09999
H         -3.12037       -2.29580        1.94208
H          2.27831        0.29791        0.87991
H         -0.44646       -5.45826       -1.67785
H         -1.96369       -4.97064       -0.91855
H         -3.99354       -3.70751        1.32210
H         -1.22230       -3.96188       -2.21481
H         -1.71700        1.78680        1.90179
H         -2.06873        3.20258        0.89642
H         -6.54590        2.13984        0.12390
H         -4.38609       -1.31902       -1.15078
C         -4.36288       -0.35124       -0.65400
H          0.68202        2.16183        1.32365
C         -3.16594        0.17151       -0.13904
C          0.59981       -0.40282       -0.21107
C          1.87584        0.39130       -0.13659
C          1.67422        1.86334       -0.46946
N          0.51915        2.41705        0.34063
C          0.48139        3.91715        0.25149
*
