# ORCA job from PDB
! B3LYP D3BJ def2-SVP Opt TightSCF CPCM(water)

* xyz 0 1
C          5.37527        3.01494        1.56579
N          5.16927        2.90402        0.12238
C          6.39915        2.49894       -0.57476
C          6.87508        1.08838       -0.21107
C          5.75063        0.08366       -0.18634
C          6.05425       -1.27594       -0.09659
C          5.02794       -2.21088       -0.05025
C          3.68395       -1.80488       -0.06704
C          3.33552       -0.44459       -0.21758
C          4.40040        0.50286       -0.20483
C          4.05986        1.99515       -0.27242
C          2.74582        2.27861        0.49149
C          1.63643        1.39106       -0.02035
C          0.32987        1.89417       -0.12426
C         -0.68974        1.09277       -0.62615
C         -0.40669       -0.20664       -1.02848
C          0.89186       -0.71397       -0.90778
C          1.93801        0.05586       -0.37085
O          2.71818       -2.77879        0.04902
C          2.44480       -3.02487        1.42994
O          5.37715       -3.53098        0.09057
C          5.32410       -4.18444       -1.17808
H          4.54067        3.54434        2.03689
H          6.26514        3.61759        1.78206
H          5.49296        2.04657        2.06312
H          7.20200        3.22049       -0.37856
H          6.22173        2.55410       -1.65766
H          7.63142        0.77454       -0.94066
H          7.35190        1.09945        0.77668
H          7.08686       -1.61162       -0.05196
H          3.86419        2.20228       -1.33610
H          2.84800        2.08252        1.56632
H          2.47379        3.33398        0.36514
H          0.10815        2.91664        0.17181
H         -1.69864        1.48566       -0.71756
H         -1.19316       -0.83208       -1.44309
H          1.07086       -1.72558       -1.26265
H          2.08779       -2.11993        1.93393
H          1.65081       -3.77582        1.48305
H          3.32293       -3.42601        1.94707
H          5.60598       -5.23068       -1.02627
H          4.31603       -4.16553       -1.60516
H          6.04147       -3.73939       -1.87676
*
