# ORCA job from PDB
! B3LYP D3BJ def2-SVP Opt TightSCF CPCM(water)

* xyz +1 1
H         -4.21983        1.65023       -1.21817
H          1.53142        3.98054        0.52444
H          1.74005       -1.92572       -0.72224
H         -3.12794        1.95138        1.67134
H          1.22577       -1.87736       -2.45395
H         -0.58594       -1.41703       -1.16917
C         -1.77374        0.11910       -0.24094
C         -1.79558        1.49766        0.06344
H         -6.66253        1.29779       -1.30951
H         -0.40580       -3.30897        1.72708
H         -5.61277        2.03055        1.35394
C          0.50308        1.77176       -0.67937
C         -4.27654        1.46548       -0.13593
C         -0.66158        2.30652       -0.12874
C         -0.60442       -0.38527       -0.83482
H         -4.92575       -6.02484        0.68101
C         -2.99133       -0.70642        0.02839
H         -2.03368       -3.04463        2.37098
H         -7.67988        1.85615        0.04953
C         -4.24883       -0.04232        0.08285
H         -0.71093        3.35583        0.14352
C          1.67948        3.85489       -0.55307
H         -6.70918        3.90325        0.26639
H         -7.53976       -0.67032       -0.11691
O          1.64982        2.48340       -0.91837
H         -7.05243       -0.00753        1.45097
C         -3.07387        2.10768        0.58650
H         -4.96840        4.12799        0.53496
H         -3.05097        3.18666        0.40402
O          1.69508       -0.03547       -1.60987
C          0.53003        0.41458       -1.03922
O         -1.75391       -2.73955        0.29747
C         -2.97284       -2.10024        0.28780
C         -1.47197       -3.43301        1.51375
H         -5.80173       -4.82596       -0.27960
C          1.88309       -1.44216       -1.69460
H          2.91614       -1.62273       -2.00702
H          0.94210        4.42967       -1.12301
H         -1.66110       -4.50264        1.38334
H          2.67041        4.24701       -0.80134
H         -5.83459       -4.76660        1.52626
H         -5.56790        3.67409       -1.10659
H         -6.31299       -2.68725        0.67350
C         -5.22609       -4.97349        0.64010
O         -4.04381       -4.18372        0.64106
C         -4.16620       -2.82904        0.47930
C         -5.38430       -2.15070        0.49694
C         -5.43808       -0.76468        0.30079
C         -6.77339       -0.07359        0.39187
C         -6.76181        1.32203       -0.21777
N         -5.58741        2.10789        0.32860
C         -5.71268        3.56312       -0.02891
*
