# ORCA job from PDB
! B3LYP D3BJ def2-SVP Opt TightSCF CPCM(water)

* xyz 0 1
H         -0.15448       -3.40210        0.59766
C         -3.67558        2.64951       -0.62448
H          0.97460       -2.16732       -1.26124
H          1.85709       -4.21424       -1.89771
H          3.15107       -3.02084       -2.11629
O          0.50619        2.69068        0.44751
H          3.31375       -2.63779        1.67019
H          5.10237       -1.27366        0.71515
H          4.65491       -1.70026       -0.94224
H          3.47499       -4.58166       -1.33050
H         -2.46450       -2.77790        0.88439
H         -5.22802       -0.75890       -1.43570
H         -1.33508        1.78489       -0.64187
H         -5.97043       -0.02551        0.04658
C         -2.93659        0.41846       -0.17283
C          2.75849        1.93830        0.19600
O          3.24825        3.21325        0.33487
C          3.26344       -0.41178        0.03803
C          0.40021        2.95196        1.84945
C          1.38315        1.65216        0.23097
C          3.69345        0.91184        0.13055
C          0.91018        0.33217        0.05697
C         -3.24787       -0.88548        0.23973
C          1.88730       -0.69925       -0.05155
C         -0.52988       -0.06501        0.08029
O         -3.97362        1.26952       -0.45414
H         -6.33709       -1.68249       -0.42263
H          0.55105       -2.28446        1.78241
C          1.39417       -2.13484       -0.24331
C          0.22991       -2.38380        0.73761
C         -1.58481        0.79735       -0.27095
C         -0.87162       -1.38003        0.46143
H         -4.62531        3.18723       -0.70463
C          4.25870       -1.53749        0.06602
H         -3.13786        3.05362        0.23985
H         -3.12157        2.81768       -1.55351
H          0.12584        2.05022        2.40841
N          2.40142       -3.21704       -0.11978
C          2.74413       -3.77144       -1.43033
C          3.59811       -2.80303        0.62185
H          4.75291        1.14918        0.17892
C         -2.21350       -1.76765        0.56697
H          4.32996       -3.62011        0.64590
H          1.32802        3.37735        2.24538
H         -0.39529        3.68998        1.98978
O         -4.49154       -1.43866        0.40656
C          3.03219        3.96262       -0.86142
C         -5.54405       -0.92817       -0.40071
H          3.40107        3.42570       -1.74297
H          1.97694        4.22283       -0.98715
H          3.59781        4.89540       -0.77550
*
