# ORCA job from PDB
! B3LYP D3BJ def2-SVP Opt TightSCF CPCM(water)

* xyz +1 1
O          2.52746        2.38801       -0.56601
C         -0.91766        1.38353        0.18377
C         -0.48213       -2.97393        1.59776
H         -6.80486        1.80470        0.03212
H          2.55568       -2.15430       -0.91230
H         -6.23975       -0.14227        1.33960
C          2.72921       -1.50615       -1.77782
C         -2.13871       -2.19407        0.19833
C          1.40024        1.62179       -0.45094
H         -4.08685        4.01537        0.72052
C          0.27881       -0.48787       -0.76235
H         -3.31872        1.62748       -1.15732
H         -4.77266        1.87868        1.39873
H          0.22397        3.21157        0.39394
C         -5.92798       -0.15163        0.28761
H          0.45045       -3.54572        1.58797
C         -4.59656       -0.84813        0.19987
H         -5.82326        3.82330        0.40201
H          3.75240       -1.68058       -2.12426
C         -3.34163       -2.89714        0.30972
H         -6.68272       -0.71159       -0.27720
C         -5.88533        1.27587       -0.24067
O          2.61779       -0.13449       -1.42446
H         -0.26041       -1.96845        1.97050
C         -3.38950       -0.12646        0.05835
N         -4.71712        2.01757        0.38103
H          2.39709        3.24944       -0.14218
H         -1.18491       -3.47980        2.26855
H         -2.16517        3.07289        0.54722
C         -2.20629        1.98829        0.68965
H         -2.29326        1.79300        1.76604
C         -0.90183        0.01951       -0.18671
H         -4.65384        3.66530       -0.95755
H         -5.75633        1.31278       -1.32888
O         -3.35148       -4.25821        0.42135
C          0.23736        2.17180        0.07972
C         -2.13191       -0.79706        0.01078
H         -5.47198       -2.82284        0.43313
H          0.28798       -1.50867       -1.13004
C         -4.55972       -2.23952        0.32160
H          2.05211       -1.75536       -2.60123
C         -3.40042        1.39058       -0.08697
C          1.43271        0.29452       -0.88949
C         -4.82332        3.49209        0.10824
H         -2.43493       -4.55655        0.26230
O         -0.98700       -2.94228        0.25702
*
