# ORCA job from PDB
! B3LYP D3BJ def2-SVP Opt TightSCF CPCM(water)

* xyz 0 1
H          2.29358        1.29935       -0.21470
C         -1.56904        0.56314       -0.04456
C         -1.05587        1.87385        0.02393
C         -0.61989       -0.49581       -0.13160
H          2.63017       -1.09707        0.46231
C         -2.28763       -2.08830        0.81856
H         -3.79379        2.04001       -0.77717
C          0.31883        2.11879       -0.09559
C          1.73626       -1.38263       -0.10521
O          0.79780        3.40044       -0.11038
H         -2.54192        2.32001        2.08296
H          0.00881        3.97189       -0.16610
O         -7.01679       -0.89590        0.50692
H          0.79693       -4.53175       -1.17817
C         -3.37751       -1.07867        0.51575
C         -3.01564        0.20867        0.04311
C         -2.07437        3.18882        1.60796
C         -4.72163       -1.43135        0.68724
H         -0.83805       -4.15855       -1.69017
C         -5.71037       -0.52473        0.33990
C          1.08648       -2.58445        0.58775
H          1.80179       -3.41522        0.63221
C          0.76664       -0.23519       -0.14376
C          1.23062        1.08025       -0.16861
H          2.05447       -1.62826       -1.12418
C         -1.14954       -1.92927       -0.21104
H          0.87162       -2.33127        1.63515
C         -4.05311        1.08228       -0.34101
H         -5.67101        2.76103       -1.96229
H         -7.53657       -0.13131        0.19123
O         -1.85584        2.98045        0.20693
O         -6.48051        1.50937       -0.50518
C          0.08726       -3.70791       -1.31324
N         -0.16334       -3.02494       -0.04294
H         -5.00052       -2.40934        1.06917
H         -2.69816       -3.10413        0.75577
H         -5.64969        3.40878       -0.27433
H         -1.13721        3.43974        2.11661
C         -6.20343        2.81209       -1.00692
H         -2.75505        4.03882        1.71361
C         -5.39697        0.73039       -0.18555
H          0.47872       -3.03729       -2.08565
H         -1.60027       -2.01725       -1.21223
H         -7.16086        3.31075       -1.18600
H         -1.93043       -1.93134        1.84447
*
