# ORCA job from PDB
! B3LYP D3BJ def2-SVP Opt TightSCF CPCM(water)

* xyz 0 1
C         -2.10472        0.53849       -0.23074
H          3.07734       -2.71061        0.71100
H         -2.56239       -1.22202       -2.68692
C         -4.65581       -0.28808       -4.04524
C          5.94238        1.81972        0.17950
C          2.54879       -1.76995        0.83998
H          7.88284       -0.94369       -0.29560
H         -1.38743        2.82340        1.53202
H         -0.28508       -3.16493        0.41915
C          0.50904       -0.53749        1.26484
C          1.19846        0.68058        1.17588
C         -2.88755       -0.73246       -0.57516
H         -3.77338       -0.83845        0.05824
C          0.51038        1.94169        1.38828
C          7.07065        1.03695       -0.08167
C          0.42485       -3.05975        1.24554
H         -2.72198        1.42054       -0.45023
H          1.05611        2.86828        1.50425
H         -5.59778        1.52764       -2.18754
H          5.72619       -2.08613        0.15090
C          4.62516       -0.23453        0.42778
C         -3.28222       -0.73639       -2.02792
H          1.10464       -3.91786        1.21740
H         -2.40948        0.74599        3.25335
H         -5.60100       -0.80527       -4.23904
C          5.77825       -1.00165        0.16156
C         -4.39950       -0.20772       -2.56391
C         -0.82508        1.90107        1.41404
N          3.48993        1.65631        0.71484
H          6.00642        2.90286        0.18518
H         -5.22387        0.62534       -0.72433
C          4.73704        1.15401        0.43137
H         -3.29792       -0.35476        2.22698
C          1.17181       -1.76197        1.12477
C          6.99303       -0.35371       -0.09052
H         -3.49654        1.39948        2.01117
H         -3.86514       -0.82962       -4.57515
O         -0.83839       -0.57819        1.52840
H          8.02339        1.52241       -0.28078
H         -2.27488       -1.62213       -0.38778
H         -1.24037        0.59151       -0.90849
C         -1.60410        0.61044        1.23113
H         -4.71427        0.71788       -4.47382
C          3.25942       -0.55544        0.71417
C         -5.46213        0.51792       -1.78550
C         -2.77233        0.60636        2.22743
H          3.27513        2.63986        0.77276
H         -0.11579       -3.10277        2.19675
C          2.57088        0.64640        0.89004
H         -6.41502       -0.01557       -1.86036
*
